
Gurobi 11.0.1 (win64) logging started Wed Nov 27 16:21:16 2024

Set parameter LogFile to value "ReLUconvexe_Adv1.log"
Gurobi Optimizer version 11.0.1 build v11.0.1rc0 (win64 - Windows 11.0 (22631.2))

CPU model: AMD Ryzen 7 4800H with Radeon Graphics, instruction set [SSE2|AVX|AVX2]
Thread count: 8 physical cores, 16 logical processors, using up to 16 threads

Optimize a model with 21 rows, 30 columns and 58 nonzeros
Model fingerprint: 0x2616e1f6
Coefficient statistics:
  Matrix range     [5e-02, 2e+04]
  Objective range  [1e-01, 6e-01]
  Bounds range     [1e+00, 1e+00]
  RHS range        [1e-01, 1e+04]
Presolve removed 10 rows and 20 columns
Presolve time: 0.00s
Presolved: 11 rows, 10 columns, 39 nonzeros

Iteration    Objective       Primal Inf.    Dual Inf.      Time
       0   -1.0500000e+30   3.000000e+30   1.050000e+00      0s
       6   -8.2869376e+03   0.000000e+00   0.000000e+00      0s

Solved in 6 iterations and 0.00 seconds (0.00 work units)
Optimal objective -8.286937600e+03

Gurobi 11.0.1 (win64) logging started Thu Nov 28 14:56:32 2024

Set parameter LogFile to value "ReLUconvexe_Adv1.log"
Gurobi Optimizer version 11.0.1 build v11.0.1rc0 (win64 - Windows 11.0 (22631.2))

CPU model: AMD Ryzen 7 4800H with Radeon Graphics, instruction set [SSE2|AVX|AVX2]
Thread count: 8 physical cores, 16 logical processors, using up to 16 threads

Optimize a model with 21 rows, 30 columns and 58 nonzeros
Model fingerprint: 0x9338db2c
Coefficient statistics:
  Matrix range     [5e-02, 2e+04]
  Objective range  [1e-01, 6e-01]
  Bounds range     [1e+00, 2e+04]
  RHS range        [1e-01, 1e+04]
Presolve removed 10 rows and 20 columns
Presolve time: 0.00s
Presolved: 11 rows, 10 columns, 39 nonzeros

Iteration    Objective       Primal Inf.    Dual Inf.      Time
       0   -1.0500000e+30   3.000000e+30   1.050000e+00      0s
       6   -8.2870297e+03   0.000000e+00   0.000000e+00      0s

Solved in 6 iterations and 0.00 seconds (0.00 work units)
Optimal objective -8.287029656e+03

Gurobi 11.0.1 (win64) logging started Wed Dec  4 09:57:27 2024

Set parameter LogFile to value "ReLUconvexe_Adv1.log"
Gurobi Optimizer version 11.0.1 build v11.0.1rc0 (win64 - Windows 11.0 (22631.2))

CPU model: AMD Ryzen 7 4800H with Radeon Graphics, instruction set [SSE2|AVX|AVX2]
Thread count: 8 physical cores, 16 logical processors, using up to 16 threads

Optimize a model with 26 rows, 40 columns and 101 nonzeros
Model fingerprint: 0x6f19278f
Coefficient statistics:
  Matrix range     [6e-03, 2e+03]
  Objective range  [1e+00, 2e+00]
  Bounds range     [1e+00, 2e+03]
  RHS range        [6e-03, 1e+03]
Presolve removed 9 rows and 30 columns
Presolve time: 0.00s
Presolved: 17 rows, 10 columns, 78 nonzeros

Iteration    Objective       Primal Inf.    Dual Inf.      Time
       0   -9.2938099e+30   1.216540e+31   9.293810e+00      0s
       7   -7.3565895e+03   0.000000e+00   0.000000e+00      0s

Solved in 7 iterations and 0.00 seconds (0.00 work units)
Optimal objective -7.356589535e+03

Gurobi 11.0.1 (win64) logging started Wed Dec  4 09:57:27 2024

Set parameter LogFile to value "ReLUconvexe_Adv1.log"
Gurobi Optimizer version 11.0.1 build v11.0.1rc0 (win64 - Windows 11.0 (22631.2))

CPU model: AMD Ryzen 7 4800H with Radeon Graphics, instruction set [SSE2|AVX|AVX2]
Thread count: 8 physical cores, 16 logical processors, using up to 16 threads

Optimize a model with 26 rows, 40 columns and 101 nonzeros
Model fingerprint: 0x67dbd496
Variable types: 26 continuous, 14 integer (14 binary)
Coefficient statistics:
  Matrix range     [6e-03, 2e+03]
  Objective range  [1e+00, 2e+00]
  Bounds range     [1e+00, 2e+03]
  RHS range        [6e-03, 1e+03]
Found heuristic solution: objective -3871.287654
Presolve removed 7 rows and 28 columns
Presolve time: 0.00s
Presolved: 19 rows, 12 columns, 89 nonzeros
Variable types: 12 continuous, 0 integer (0 binary)

Root relaxation: objective -7.356590e+03, 8 iterations, 0.00 seconds (0.00 work units)

    Nodes    |    Current Node    |     Objective Bounds      |     Work
 Expl Unexpl |  Obj  Depth IntInf | Incumbent    BestBd   Gap | It/Node Time

*    0     0               0    -7356.589535 -7356.5895  0.00%     -    0s

Explored 1 nodes (8 simplex iterations) in 0.01 seconds (0.00 work units)
Thread count was 16 (of 16 available processors)

Solution count 1: -7356.59 
No other solutions better than -7356.59

Optimal solution found (tolerance 1.00e-04)
Best objective -7.356589534920e+03, best bound -7.356589534920e+03, gap 0.0000%

Gurobi 11.0.1 (win64) logging started Wed Dec  4 11:40:06 2024

Set parameter LogFile to value "ReLUconvexe_Adv1.log"
Gurobi Optimizer version 11.0.1 build v11.0.1rc0 (win64 - Windows 11.0 (22631.2))

CPU model: AMD Ryzen 7 4800H with Radeon Graphics, instruction set [SSE2|AVX|AVX2]
Thread count: 8 physical cores, 16 logical processors, using up to 16 threads

Optimize a model with 1658 rows, 944 columns and 34006 nonzeros
Model fingerprint: 0xd90df241
Coefficient statistics:
  Matrix range     [2e-06, 2e+03]
  Objective range  [9e-02, 4e+00]
  Bounds range     [1e-02, 2e+03]
  RHS range        [3e-03, 2e+03]
Presolve removed 1572 rows and 111 columns
Presolve time: 0.00s
Presolved: 86 rows, 833 columns, 29298 nonzeros

Concurrent LP optimizer: primal simplex, dual simplex, and barrier
Showing barrier log only...

Ordering time: 0.00s

Barrier statistics:
 AA' NZ     : 3.255e+03
 Factor NZ  : 3.341e+03
 Factor Ops : 1.676e+05 (less than 1 second per iteration)
 Threads    : 6

Barrier performed 0 iterations in 0.02 seconds (0.01 work units)
Barrier solve interrupted - model solved by another algorithm


Solved with dual simplex
Iteration    Objective       Primal Inf.    Dual Inf.      Time
      78   -4.5598119e+03   0.000000e+00   0.000000e+00      0s

Solved in 78 iterations and 0.02 seconds (0.01 work units)
Optimal objective -4.559811912e+03

Gurobi 11.0.1 (win64) logging started Wed Dec  4 11:40:07 2024

Set parameter LogFile to value "ReLUconvexe_Adv1.log"
Gurobi Optimizer version 11.0.1 build v11.0.1rc0 (win64 - Windows 11.0 (22631.2))

CPU model: AMD Ryzen 7 4800H with Radeon Graphics, instruction set [SSE2|AVX|AVX2]
Thread count: 8 physical cores, 16 logical processors, using up to 16 threads

Optimize a model with 1658 rows, 944 columns and 34006 nonzeros
Model fingerprint: 0x9a89596d
Variable types: 884 continuous, 60 integer (60 binary)
Coefficient statistics:
  Matrix range     [2e-06, 2e+03]
  Objective range  [9e-02, 4e+00]
  Bounds range     [1e-02, 2e+03]
  RHS range        [3e-03, 2e+03]
Presolve removed 1572 rows and 111 columns
Presolve time: 0.06s
Presolved: 86 rows, 833 columns, 29298 nonzeros
Variable types: 824 continuous, 9 integer (9 binary)
Found heuristic solution: objective -4559.811912

Root relaxation: cutoff, 36 iterations, 0.00 seconds (0.00 work units)

    Nodes    |    Current Node    |     Objective Bounds      |     Work
 Expl Unexpl |  Obj  Depth IntInf | Incumbent    BestBd   Gap | It/Node Time

     0     0     cutoff    0      -4559.8119 -4559.8119  0.00%     -    0s

Explored 1 nodes (36 simplex iterations) in 0.07 seconds (0.07 work units)
Thread count was 16 (of 16 available processors)

Solution count 1: -4559.81 
No other solutions better than -4559.81

Optimal solution found (tolerance 1.00e-04)
Best objective -4.559811911605e+03, best bound -4.559811911605e+03, gap 0.0000%

Gurobi 11.0.1 (win64) logging started Wed Dec  4 15:14:50 2024

Set parameter LogFile to value "ReLUconvexe_Adv1.log"
Gurobi Optimizer version 11.0.1 build v11.0.1rc0 (win64 - Windows 11.0 (22631.2))

CPU model: AMD Ryzen 7 4800H with Radeon Graphics, instruction set [SSE2|AVX|AVX2]
Thread count: 8 physical cores, 16 logical processors, using up to 16 threads

Optimize a model with 1658 rows, 944 columns and 34006 nonzeros
Model fingerprint: 0x04050761
Coefficient statistics:
  Matrix range     [2e-06, 2e+03]
  Objective range  [8e-02, 3e+00]
  Bounds range     [1e-02, 2e+03]
  RHS range        [5e-03, 2e+03]
Presolve removed 1568 rows and 111 columns
Presolve time: 0.01s
Presolved: 90 rows, 833 columns, 32438 nonzeros

Concurrent LP optimizer: primal simplex, dual simplex, and barrier
Showing barrier log only...

Ordering time: 0.00s

Barrier statistics:
 AA' NZ     : 3.565e+03
 Factor NZ  : 3.655e+03
 Factor Ops : 1.923e+05 (less than 1 second per iteration)
 Threads    : 6

Barrier performed 0 iterations in 0.02 seconds (0.01 work units)
Barrier solve interrupted - model solved by another algorithm


Solved with dual simplex
Extra simplex iterations after uncrush: 13
Iteration    Objective       Primal Inf.    Dual Inf.      Time
      95   -3.5385565e+03   0.000000e+00   0.000000e+00      0s

Solved in 95 iterations and 0.03 seconds (0.01 work units)
Optimal objective -3.538556485e+03

Gurobi 11.0.1 (win64) logging started Wed Dec  4 15:14:50 2024

Set parameter LogFile to value "ReLUconvexe_Adv1.log"
Gurobi Optimizer version 11.0.1 build v11.0.1rc0 (win64 - Windows 11.0 (22631.2))

CPU model: AMD Ryzen 7 4800H with Radeon Graphics, instruction set [SSE2|AVX|AVX2]
Thread count: 8 physical cores, 16 logical processors, using up to 16 threads

Optimize a model with 1658 rows, 944 columns and 34006 nonzeros
Model fingerprint: 0x0eb49689
Variable types: 884 continuous, 60 integer (60 binary)
Coefficient statistics:
  Matrix range     [2e-06, 2e+03]
  Objective range  [8e-02, 3e+00]
  Bounds range     [1e-02, 2e+03]
  RHS range        [5e-03, 2e+03]
Presolve removed 1568 rows and 111 columns
Presolve time: 0.04s
Presolved: 90 rows, 833 columns, 32438 nonzeros
Variable types: 824 continuous, 9 integer (9 binary)
Found heuristic solution: objective -3538.556485

Root relaxation: cutoff, 41 iterations, 0.01 seconds (0.00 work units)

    Nodes    |    Current Node    |     Objective Bounds      |     Work
 Expl Unexpl |  Obj  Depth IntInf | Incumbent    BestBd   Gap | It/Node Time

     0     0     cutoff    0      -3538.5565 -3538.5565  0.00%     -    0s

Explored 1 nodes (41 simplex iterations) in 0.06 seconds (0.06 work units)
Thread count was 16 (of 16 available processors)

Solution count 1: -3538.56 
No other solutions better than -3538.56

Optimal solution found (tolerance 1.00e-04)
Best objective -3.538556485330e+03, best bound -3.538556485330e+03, gap 0.0000%
